p edge 44 174
v 1 1
v 2 2
v 3 3
v 4 4
v 5 5
v 6 6
v 7 7
v 8 8
v 9 9
v 10 10
v 11 11
v 12 12
v 13 13
v 14 14
v 15 15
v 16 16
v 17 17
v 18 18
v 19 19
v 20 20
v 21 21
v 22 22
v 23 23
v 24 24
v 25 25
v 26 26
v 27 27
v 28 28
v 29 29
v 30 30
v 31 31
v 32 32
v 33 33
v 34 34
v 35 35
v 36 36
v 37 37
v 38 38
v 39 39
v 40 40
v 41 41
v 42 42
v 43 43
v 44 44
e 1 2
e 1 3
e 1 4
e 1 5
e 1 13
e 1 17
e 1 22
e 1 26
e 1 35
e 2 3
e 2 4
e 2 5
e 2 7
e 2 27
e 2 32
e 2 36
e 3 4
e 3 5
e 3 9
e 3 18
e 3 29
e 3 37
e 4 5
e 4 15
e 4 38
e 4 43
e 5 20
e 5 30
e 5 34
e 5 39
e 6 7
e 6 8
e 6 9
e 6 10
e 6 11
e 6 12
e 6 21
e 6 31
e 6 40
e 7 8
e 7 9
e 7 10
e 7 11
e 7 27
e 7 32
e 7 36
e 8 9
e 8 10
e 8 11
e 8 23
e 8 28
e 8 41
e 9 10
e 9 11
e 9 18
e 9 29
e 9 37
e 10 11
e 10 14
e 10 19
e 10 24
e 10 42
e 11 16
e 11 25
e 11 33
e 11 44
e 12 13
e 12 14
e 12 15
e 12 16
e 12 21
e 12 31
e 12 40
e 13 14
e 13 15
e 13 16
e 13 17
e 13 22
e 13 26
e 13 35
e 14 15
e 14 16
e 14 19
e 14 24
e 14 42
e 15 16
e 15 38
e 15 43
e 16 25
e 16 33
e 16 44
e 17 18
e 17 19
e 17 20
e 17 22
e 17 26
e 17 35
e 18 19
e 18 20
e 18 29
e 18 37
e 19 20
e 19 24
e 19 42
e 20 30
e 20 34
e 20 39
e 21 22
e 21 23
e 21 24
e 21 25
e 21 31
e 21 40
e 22 23
e 22 24
e 22 25
e 22 26
e 22 35
e 23 24
e 23 25
e 23 28
e 23 41
e 24 25
e 24 42
e 25 33
e 25 44
e 26 27
e 26 28
e 26 29
e 26 30
e 26 35
e 27 28
e 27 29
e 27 30
e 27 32
e 27 36
e 28 29
e 28 30
e 28 41
e 29 30
e 29 37
e 30 34
e 30 39
e 31 32
e 31 33
e 31 34
e 31 40
e 32 33
e 32 34
e 32 36
e 33 34
e 33 44
e 34 39
e 35 36
e 35 37
e 35 38
e 35 39
e 36 37
e 36 38
e 36 39
e 37 38
e 37 39
e 38 39
e 38 43
e 40 41
e 40 42
e 40 43
e 40 44
e 41 42
e 41 43
e 41 44
e 42 43
e 42 44
e 43 44
